5 45 69 36 27 28 30 19 87 12 16 79 6 37 43 3 68 54 20 77 24 91 70 
83 31 23 59 14 82 11 53 71 67 85 18 10 34 56 17 60 1 
65 95 42 64 63 76 92 29 51 86 41 40 46 97 13 35 93 
72 15 61 2 47 9 7 73 88 94 81 22 49 66 74 25 48 
38 32 
99 44 57 90 84 50 100 
39 33 21 52 80 
62 75 8 98 78 96 55 26 4 89 58 

